c read Graph
c width = 270
c time = 1686 ms
c width = 24
c time = 1945 ms
c width = 23
c time = 2051 ms
c width = 22
c time = 2467 ms
c width = 21
c time = 6406 ms
c width = 20
c time = 9170 ms
c width = 19
c time = 23264 ms
c width = 18
c time = 99755 ms
c width = 18
c time = 299855 ms
s td 946 19 1039
b 1 108 749
b 2 446 749 750
b 3 100 686
b 4 472 504
b 5 196 476
b 6 399 476 477
b 7 444 477 478
b 8 298 478 479
b 9 86 479 480
b 10 124 505 506 754
b 11 295 490 754 755
b 12 351 362 685 1037
b 13 474 503 537 538
b 14 160 490 491 502
b 15 505 506 687 754
b 16 294 507 508 509
b 17 31 511 512 513
b 18 363 513 514 517
b 19 265 518 519 520
b 20 307 523 524 525
b 21 311 526 527 528
b 22 329 528 529 530
b 23 59 532 533 534
b 24 52 534 535 537
b 25 280 538 539 542
b 26 413 545 546 547
b 27 460 547 548 550
b 28 284 550 551 552
b 29 314 553 554 555
b 30 249 559 560 562
b 31 459 562 563 565
b 32 419 567 568 569
b 33 412 569 570 573
b 34 305 575 576 577
b 35 62 579 580 582
b 36 103 582 583 584
b 37 325 584 585 587
b 38 1 589 590 591
b 39 208 591 592 593
b 40 247 593 594 595
b 41 372 595 596 597
b 42 231 599 600 604
b 43 25 604 605 606
b 44 353 606 607 613
b 45 177 613 614 616
b 46 328 617 618 624
b 47 126 624 625 628
b 48 422 633 634 635
b 49 433 635 636 637
b 50 375 638 639 643
b 51 349 643 644 654
b 52 408 655 656 657
b 53 220 657 658 659
b 54 155 661 662 663
b 55 404 668 669 677
b 56 442 677 678 679
b 57 471 679 680 681
b 58 93 681 682 684
b 59 490 754 755 778
b 60 164 778 779 783
b 61 224 783 784 792
b 62 270 792 793 797
b 63 461 797 798 812
b 64 59 812 813 816
b 65 52 816 817 826
b 66 222 826 827 829
b 67 360 829 830 846
b 68 344 846 847 849
b 69 277 849 850 853
b 70 386 853 854 855
b 71 249 855 856 860
b 72 459 860 861 864
b 73 419 865 866 871
b 74 412 871 872 898
b 75 325 898 899 909
b 76 434 909 910 917
b 77 436 917 918 942
b 78 119 942 943 961
b 79 160 961 962 964
b 80 422 964 965 1000
b 81 220 1000 1001 1005
b 82 421 1005 1006 1011
b 83 155 1011 1012 1031
b 84 93 1031 1032 1036
b 85 139 684 685 1036 1037
b 86 362 684 685 1036 1037
b 87 362 681 684 1031 1036
b 88 93 681 684 1031 1036
b 89 59 532 534 812 816
b 90 532 534 537 812 816 826
b 91 52 534 537 816 826
b 92 160 436 522 532 537 573 595 613 654 667 715 744 745 797 812 826 898 1000 1031
b 93 160 436 522 537 573 595 613 654 667 715 744 745 797 812 826 898 1000 1031
b 94 160 436 522 532 573 588 595 613 654 667 681 715 744 745 797 812 898 1000 1031
b 95 160 436 522 532 573 588 613 654 667 681 715 744 797 812 898 917 942 1000
b 96 160 325 522 532 573 584 588 613 654 667 681 715 744 797 812 898 917 942 1000
b 97 160 325 522 531 532 573 584 613 637 654 667 681 715 739 744 797 812 942 1000
b 98 160 522 531 573 584 613 624 637 667 677 681 715 719 739 797 812 942 964 1000
b 99 160 522 531 573 584 624 637 677 681 719 739 797 812 942 964 1000
b 100 160 613 617 624 667 677 715 716 719 942 964
b 101 160 613 616 617 715 716 942 964
b 102 160 616 617 942 961 964
b 103 119 616 617 942 961
b 104 177 613 616 715 716
b 105 617 624 667 677 716 717 718 719
b 106 667 668 677 716 717 718 719
b 107 404 668 677 718 719
b 108 427 667 668 716 717
b 109 328 617 624 717 718
b 110 160 522 528 531 573 578 584 624 632 637 677 681 719 730 739 797 812 964 1000
b 111 528 531 578 584 632 637 677 681 730 731 733 736 738 739 964 1000
b 112 528 531 578 584 730 731 733 735 736 738 739
b 113 578 582 584 733 735 738 739
b 114 578 579 582 733 734 735
b 115 409 578 579 733 734
b 116 62 579 582 734 735
b 117 103 582 584 738 739
b 118 528 530 531 730 731 735 736
b 119 330 530 531 735 736
b 120 329 528 530 730 731
b 121 632 635 637 677 681 731 732 733 736 738 964 1000
b 122 632 633 635 732 733 964 1000
b 123 158 632 633 732 733
b 124 422 633 635 964 1000
b 125 635 637 677 681 731 732 736 737 738
b 126 677 679 681 731 732 737 738
b 127 471 679 681 737 738
b 128 442 677 679 731 732
b 129 433 635 637 736 737
b 130 160 522 528 573 578 624 628 632 719 723 730 797 812
b 131 522 526 528 624 628 719 721 723 797 812
b 132 526 528 624 628 721 722 723
b 133 311 526 528 722 723
b 134 126 624 628 721 722
b 135 522 525 526 719 721 797 812
b 136 522 523 525 719 720 721
b 137 299 522 523 719 720
b 138 307 523 525 720 721
b 139 461 525 526 797 812
b 140 160 573 578 628 630 632 723 729 730
b 141 160 630 631 632 729 730
b 142 290 630 631 729 730
b 143 573 577 578 628 630 723 726 729
b 144 577 578 628 630 726 728 729
b 145 449 577 578 728 729
b 146 628 629 630 726 727 728
b 147 147 629 630 726 727
b 148 183 628 629 727 728
b 149 573 574 577 723 724 726
b 150 574 575 577 724 725 726
b 151 305 575 577 724 725
b 152 181 574 575 725 726
b 153 279 573 574 723 724
b 154 325 531 532 637 643 654 739 743 744
b 155 349 643 654 743 744
b 156 325 531 532 637 638 643 739 741 743
b 157 531 532 638 643 739 740 741
b 158 375 638 643 739 740
b 159 201 531 532 740 741
b 160 325 637 638 741 742 743
b 161 211 637 638 741 742
b 162 325 584 587 588 898 917
b 163 325 587 588 898 909 917
b 164 434 587 588 909 917
b 165 362 588 595 681 745 1031
b 166 362 588 591 595 745 747
b 167 362 591 595 747 748
b 168 588 589 591 745 746 747
b 169 1 589 591 746 747
b 170 316 588 589 745 746
b 171 160 436 522 537 538 542 573 595 613 654 667 715 744 745 797 826 898 1000 1031
b 172 280 538 542 744 745
b 173 160 436 522 537 538 542 544 573 595 613 654 667 715 797 826 846 898 1000 1031
b 174 160 436 522 537 538 544 573 595 613 654 667 715 797 826 846 898 1000 1031
b 175 542 543 544 826 829 846
b 176 360 543 544 829 846
b 177 222 542 543 826 829
b 178 160 436 490 502 522 537 538 544 573 595 613 654 667 715 797 846 898 1000 1031
b 179 426 436 490 502 522 537 538 544 573 595 613 654 667 715 797 846 898 1000 1031
b 180 426 436 490 522 538 544 573 595 613 654 667 715 754 778 797 846 898 1000 1031
b 181 426 436 522 544 567 573 595 613 654 667 715 754 778 797 846 865 898 1000 1031
b 182 426 436 522 544 566 567 595 613 654 667 714 715 754 778 797 846 865 1000 1031
b 183 426 436 522 544 558 566 595 613 654 667 714 754 778 797 846 853 865 1000 1031
b 184 426 436 522 544 555 557 558 595 613 654 667 714 754 778 797 846 853 1000 1031
b 185 426 436 522 544 555 557 558 595 613 654 667 706 707 714 754 778 797 1000 1031
b 186 426 436 517 522 544 555 595 613 654 657 667 706 707 714 754 778 797 1000 1031
b 187 37 566 567 714 715
b 188 567 569 573 865 871 898
b 189 412 569 573 871 898
b 190 419 567 569 865 871
b 191 426 502 503 537 538
b 192 436 509 517 544 555 595 604 613 654 657 698 706 754
b 193 436 509 544 545 555 595 599 604 692 698 754
b 194 545 547 555 599 604 692 694 698
b 195 547 553 555 694 697 698
b 196 314 553 555 697 698
b 197 547 552 553 694 696 697
b 198 547 550 552 694 695 696
b 199 284 550 552 695 696
b 200 460 547 550 694 695
b 201 271 552 553 696 697
b 202 545 547 599 604 692 693 694
b 203 413 545 547 692 693
b 204 231 599 604 693 694
b 205 372 436 509 544 545 595 599 691 692 754
b 206 372 509 544 545 689 690 691 754
b 207 75 544 545 689 690
b 208 372 507 509 689 690 691 754
b 209 372 506 507 688 689 754
b 210 309 506 507 688 689
b 211 372 506 687 688 754
b 212 294 507 509 690 691
b 213 372 436 595 598 599 691 692
b 214 223 598 599 691 692
b 215 372 436 595 597 598
b 216 509 517 604 613 654 657 698 700 706
b 217 654 655 657 698 699 700
b 218 174 654 655 699 700
b 219 408 655 657 698 699
b 220 509 513 517 604 613 700 705 706
b 221 363 513 517 705 706
b 222 509 511 513 604 613 700 702 705
b 223 509 510 511 700 701 702
b 224 111 509 510 700 701
b 225 22 510 511 701 702
b 226 511 513 604 606 613 702 704 705
b 227 511 513 604 606 702 703 704
b 228 25 604 606 702 703
b 229 31 511 513 703 704
b 230 353 606 613 704 705
b 231 555 556 557 846 849 853
b 232 344 555 556 846 849
b 233 277 556 557 849 853
b 234 197 557 558 706 707
b 235 558 565 566 853 864 865
b 236 140 565 566 864 865
b 237 558 562 565 853 860 864
b 238 459 562 565 860 864
b 239 558 559 562 853 855 860
b 240 386 558 559 853 855
b 241 249 559 562 855 860
b 242 426 517 522 657 663 667 707 708 714 778 797 1000 1031
b 243 224 426 517 522 663 667 708 709 714 778 797
b 244 224 426 663 665 667 709 712 714
b 245 224 426 663 665 709 710 712
b 246 224 426 710 711 712
b 247 426 663 664 665 709 710
b 248 269 664 665 709 710
b 249 665 666 667 712 713 714
b 250 335 665 666 712 713
b 251 392 666 667 713 714
b 252 224 517 520 522 708 709 778 783 797
b 253 224 520 522 783 792 797
b 254 224 520 521 522 792 797
b 255 270 521 522 792 797
b 256 517 518 520 708 709 778 783
b 257 164 517 518 778 783
b 258 265 518 520 708 709
b 259 657 659 663 707 708 1000 1005 1031
b 260 659 660 663 707 708 1005 1031
b 261 660 661 663 1005 1011 1031
b 262 155 661 663 1011 1031
b 263 421 660 661 1005 1011
b 264 395 659 660 707 708
b 265 220 657 659 1000 1005
b 266 247 591 593 595 748
b 267 208 247 591 593 748
b 268 229 1035 1036
b 269 1032 1035 1036
b 270 57 1034 1035
b 271 1032 1034 1035
b 272 331 1033 1034
b 273 1032 1033 1034
b 274 118 1032 1033
b 275 337 1030 1031
b 276 1012 1030 1031
b 277 410 1029 1030
b 278 1012 1029 1030
b 279 227 1028 1029
b 280 1012 1028 1029
b 281 455 1027 1028
b 282 1012 1027 1028
b 283 302 1026 1027
b 284 1012 1026 1027
b 285 15 1025 1026
b 286 1012 1025 1026
b 287 159 1024 1025
b 288 1012 1024 1025
b 289 170 1023 1024
b 290 1012 1023 1024
b 291 163 1022 1023
b 292 1012 1022 1023
b 293 134 1021 1022
b 294 1012 1021 1022
b 295 453 1020 1021
b 296 1012 1020 1021
b 297 84 1019 1020
b 298 1012 1019 1020
b 299 248 1018 1019
b 300 1012 1018 1019
b 301 454 1017 1018
b 302 1012 1017 1018
b 303 115 1016 1017
b 304 1012 1016 1017
b 305 438 1015 1016
b 306 1012 1015 1016
b 307 384 1014 1015
b 308 1012 1014 1015
b 309 355 1013 1014
b 310 1012 1013 1014
b 311 264 1012 1013
b 312 443 1010 1011
b 313 1006 1010 1011
b 314 463 1009 1010
b 315 1006 1009 1010
b 316 81 1008 1009
b 317 1006 1008 1009
b 318 240 1007 1008
b 319 1006 1007 1008
b 320 354 1006 1007
b 321 293 1004 1005
b 322 1001 1004 1005
b 323 388 1003 1004
b 324 1001 1003 1004
b 325 18 1002 1003
b 326 1001 1002 1003
b 327 259 1001 1002
b 328 250 999 1000
b 329 965 999 1000
b 330 17 998 999
b 331 965 998 999
b 332 51 997 998
b 333 965 997 998
b 334 28 996 997
b 335 965 996 997
b 336 63 995 996
b 337 965 995 996
b 338 398 994 995
b 339 965 994 995
b 340 232 993 994
b 341 965 993 994
b 342 285 992 993
b 343 965 992 993
b 344 162 991 992
b 345 965 991 992
b 346 43 990 991
b 347 965 990 991
b 348 260 989 990
b 349 965 989 990
b 350 238 988 989
b 351 965 988 989
b 352 323 987 988
b 353 965 987 988
b 354 50 986 987
b 355 965 986 987
b 356 145 985 986
b 357 965 985 986
b 358 371 984 985
b 359 965 984 985
b 360 288 983 984
b 361 965 983 984
b 362 138 982 983
b 363 965 982 983
b 364 202 981 982
b 365 965 981 982
b 366 102 980 981
b 367 965 980 981
b 368 228 979 980
b 369 965 979 980
b 370 82 978 979
b 371 965 978 979
b 372 131 977 978
b 373 965 977 978
b 374 465 976 977
b 375 965 976 977
b 376 4 975 976
b 377 965 975 976
b 378 473 974 975
b 379 965 974 975
b 380 26 973 974
b 381 965 973 974
b 382 333 972 973
b 383 965 972 973
b 384 470 971 972
b 385 965 971 972
b 386 390 970 971
b 387 965 970 971
b 388 255 969 970
b 389 965 969 970
b 390 435 968 969
b 391 965 968 969
b 392 441 967 968
b 393 965 967 968
b 394 343 966 967
b 395 965 966 967
b 396 385 965 966
b 397 417 963 964
b 398 962 963 964
b 399 112 962 963
b 400 44 960 961
b 401 943 960 961
b 402 205 959 960
b 403 943 959 960
b 404 406 958 959
b 405 943 958 959
b 406 123 957 958
b 407 943 957 958
b 408 204 956 957
b 409 943 956 957
b 410 379 955 956
b 411 943 955 956
b 412 32 954 955
b 413 943 954 955
b 414 35 953 954
b 415 943 953 954
b 416 79 952 953
b 417 943 952 953
b 418 394 951 952
b 419 943 951 952
b 420 405 950 951
b 421 943 950 951
b 422 304 949 950
b 423 943 949 950
b 424 403 948 949
b 425 943 948 949
b 426 146 947 948
b 427 943 947 948
b 428 65 946 947
b 429 943 946 947
b 430 342 945 946
b 431 943 945 946
b 432 214 944 945
b 433 943 944 945
b 434 152 943 944
b 435 73 941 942
b 436 918 941 942
b 437 235 940 941
b 438 918 940 941
b 439 448 939 940
b 440 918 939 940
b 441 312 938 939
b 442 918 938 939
b 443 110 937 938
b 444 918 937 938
b 445 76 936 937
b 446 918 936 937
b 447 313 935 936
b 448 918 935 936
b 449 262 934 935
b 450 918 934 935
b 451 439 933 934
b 452 918 933 934
b 453 101 932 933
b 454 918 932 933
b 455 132 931 932
b 456 918 931 932
b 457 282 930 931
b 458 918 930 931
b 459 88 929 930
b 460 918 929 930
b 461 407 928 929
b 462 918 928 929
b 463 151 927 928
b 464 918 927 928
b 465 319 926 927
b 466 918 926 927
b 467 300 925 926
b 468 918 925 926
b 469 14 924 925
b 470 918 924 925
b 471 401 923 924
b 472 918 923 924
b 473 12 922 923
b 474 918 922 923
b 475 256 921 922
b 476 918 921 922
b 477 458 920 921
b 478 918 920 921
b 479 54 919 920
b 480 918 919 920
b 481 74 918 919
b 482 190 916 917
b 483 910 916 917
b 484 475 915 916
b 485 910 915 916
b 486 296 914 915
b 487 910 914 915
b 488 334 913 914
b 489 910 913 914
b 490 200 912 913
b 491 910 912 913
b 492 188 911 912
b 493 910 911 912
b 494 420 910 911
b 495 356 908 909
b 496 899 908 909
b 497 237 907 908
b 498 899 907 908
b 499 19 906 907
b 500 899 906 907
b 501 70 905 906
b 502 899 905 906
b 503 148 904 905
b 504 899 904 905
b 505 69 903 904
b 506 899 903 904
b 507 361 902 903
b 508 899 902 903
b 509 184 901 902
b 510 899 901 902
b 511 120 900 901
b 512 899 900 901
b 513 176 899 900
b 514 161 897 898
b 515 872 897 898
b 516 308 896 897
b 517 872 896 897
b 518 56 895 896
b 519 872 895 896
b 520 373 894 895
b 521 872 894 895
b 522 49 893 894
b 523 872 893 894
b 524 173 892 893
b 525 872 892 893
b 526 387 891 892
b 527 872 891 892
b 528 130 890 891
b 529 872 890 891
b 530 168 889 890
b 531 872 889 890
b 532 11 888 889
b 533 872 888 889
b 534 219 887 888
b 535 872 887 888
b 536 189 886 887
b 537 872 886 887
b 538 332 885 886
b 539 872 885 886
b 540 90 884 885
b 541 872 884 885
b 542 46 883 884
b 543 872 883 884
b 544 414 882 883
b 545 872 882 883
b 546 94 881 882
b 547 872 881 882
b 548 61 880 881
b 549 872 880 881
b 550 431 879 880
b 551 872 879 880
b 552 389 878 879
b 553 872 878 879
b 554 53 877 878
b 555 872 877 878
b 556 233 876 877
b 557 872 876 877
b 558 383 875 876
b 559 872 875 876
b 560 29 874 875
b 561 872 874 875
b 562 246 873 874
b 563 872 873 874
b 564 254 872 873
b 565 365 870 871
b 566 866 870 871
b 567 8 869 870
b 568 866 869 870
b 569 287 868 869
b 570 866 868 869
b 571 66 867 868
b 572 866 867 868
b 573 469 866 867
b 574 428 863 864
b 575 861 863 864
b 576 457 862 863
b 577 861 862 863
b 578 377 861 862
b 579 193 859 860
b 580 856 859 860
b 581 3 858 859
b 582 856 858 859
b 583 60 857 858
b 584 856 857 858
b 585 366 856 857
b 586 261 854 855
b 587 239 852 853
b 588 850 852 853
b 589 91 851 852
b 590 850 851 852
b 591 221 850 851
b 592 186 848 849
b 593 847 848 849
b 594 321 847 848
b 595 358 845 846
b 596 830 845 846
b 597 157 844 845
b 598 830 844 845
b 599 78 843 844
b 600 830 843 844
b 601 195 842 843
b 602 830 842 843
b 603 187 841 842
b 604 830 841 842
b 605 98 840 841
b 606 830 840 841
b 607 125 839 840
b 608 830 839 840
b 609 345 838 839
b 610 830 838 839
b 611 346 837 838
b 612 830 837 838
b 613 80 836 837
b 614 830 836 837
b 615 113 835 836
b 616 830 835 836
b 617 191 834 835
b 618 830 834 835
b 619 153 833 834
b 620 830 833 834
b 621 178 832 833
b 622 830 832 833
b 623 464 831 832
b 624 830 831 832
b 625 144 830 831
b 626 258 828 829
b 627 827 828 829
b 628 16 827 828
b 629 217 825 826
b 630 817 825 826
b 631 286 824 825
b 632 817 824 825
b 633 400 823 824
b 634 817 823 824
b 635 374 822 823
b 636 817 822 823
b 637 5 821 822
b 638 817 821 822
b 639 210 820 821
b 640 817 820 821
b 641 315 819 820
b 642 817 819 820
b 643 23 818 819
b 644 817 818 819
b 645 72 817 818
b 646 466 815 816
b 647 813 815 816
b 648 274 814 815
b 649 813 814 815
b 650 218 813 814
b 651 133 811 812
b 652 798 811 812
b 653 167 810 811
b 654 798 810 811
b 655 142 809 810
b 656 798 809 810
b 657 370 808 809
b 658 798 808 809
b 659 171 807 808
b 660 798 807 808
b 661 96 806 807
b 662 798 806 807
b 663 185 805 806
b 664 798 805 806
b 665 324 804 805
b 666 798 804 805
b 667 234 803 804
b 668 798 803 804
b 669 364 802 803
b 670 798 802 803
b 671 198 801 802
b 672 798 801 802
b 673 21 800 801
b 674 798 800 801
b 675 212 799 800
b 676 798 799 800
b 677 348 798 799
b 678 166 796 797
b 679 793 796 797
b 680 437 795 796
b 681 793 795 796
b 682 226 794 795
b 683 793 794 795
b 684 452 793 794
b 685 127 791 792
b 686 784 791 792
b 687 430 790 791
b 688 784 790 791
b 689 36 789 790
b 690 784 789 790
b 691 179 788 789
b 692 784 788 789
b 693 6 787 788
b 694 784 787 788
b 695 440 786 787
b 696 784 786 787
b 697 40 785 786
b 698 784 785 786
b 699 47 784 785
b 700 451 782 783
b 701 779 782 783
b 702 263 781 782
b 703 779 781 782
b 704 64 780 781
b 705 779 780 781
b 706 368 779 780
b 707 7 777 778
b 708 755 777 778
b 709 136 776 777
b 710 755 776 777
b 711 10 775 776
b 712 755 775 776
b 713 301 774 775
b 714 755 774 775
b 715 242 773 774
b 716 755 773 774
b 717 382 772 773
b 718 755 772 773
b 719 97 771 772
b 720 755 771 772
b 721 303 770 771
b 722 755 770 771
b 723 150 769 770
b 724 755 769 770
b 725 467 768 769
b 726 755 768 769
b 727 39 767 768
b 728 755 767 768
b 729 310 766 767
b 730 755 766 767
b 731 418 765 766
b 732 755 765 766
b 733 281 764 765
b 734 755 764 765
b 735 2 763 764
b 736 755 763 764
b 737 289 762 763
b 738 755 762 763
b 739 92 761 762
b 740 755 761 762
b 741 99 760 761
b 742 755 760 761
b 743 340 759 760
b 744 755 759 760
b 745 327 758 759
b 746 755 758 759
b 747 445 757 758
b 748 755 757 758
b 749 68 756 757
b 750 755 756 757
b 751 456 755 756
b 752 175 683 684
b 753 682 683 684
b 754 416 682 683
b 755 105 680 681
b 756 180 678 679
b 757 317 676 677
b 758 669 676 677
b 759 275 675 676
b 760 669 675 676
b 761 215 674 675
b 762 669 674 675
b 763 77 673 674
b 764 669 673 674
b 765 253 672 673
b 766 669 672 673
b 767 236 671 672
b 768 669 671 672
b 769 58 670 671
b 770 669 670 671
b 771 352 669 670
b 772 411 662 663
b 773 192 658 659
b 774 199 656 657
b 775 116 653 654
b 776 644 653 654
b 777 34 652 653
b 778 644 652 653
b 779 206 651 652
b 780 644 651 652
b 781 267 650 651
b 782 644 650 651
b 783 397 649 650
b 784 644 649 650
b 785 207 648 649
b 786 644 648 649
b 787 415 647 648
b 788 644 647 648
b 789 338 646 647
b 790 644 646 647
b 791 87 645 646
b 792 644 645 646
b 793 143 644 645
b 794 209 642 643
b 795 639 642 643
b 796 462 641 642
b 797 639 641 642
b 798 169 640 641
b 799 639 640 641
b 800 149 639 640
b 801 106 636 637
b 802 276 634 635
b 803 30 627 628
b 804 625 627 628
b 805 257 626 627
b 806 625 626 627
b 807 128 625 626
b 808 447 623 624
b 809 618 623 624
b 810 391 622 623
b 811 618 622 623
b 812 376 621 622
b 813 618 621 622
b 814 326 620 621
b 815 618 620 621
b 816 122 619 620
b 817 618 619 620
b 818 20 618 619
b 819 266 615 616
b 820 614 615 616
b 821 141 614 615
b 822 336 612 613
b 823 607 612 613
b 824 48 611 612
b 825 607 611 612
b 826 194 610 611
b 827 607 610 611
b 828 230 609 610
b 829 607 609 610
b 830 380 608 609
b 831 607 608 609
b 832 425 607 608
b 833 172 605 606
b 834 297 603 604
b 835 600 603 604
b 836 135 602 603
b 837 600 602 603
b 838 121 601 602
b 839 600 601 602
b 840 292 600 601
b 841 203 596 597
b 842 322 594 595
b 843 252 592 593
b 844 117 590 591
b 845 129 586 587
b 846 585 586 587
b 847 85 585 586
b 848 429 583 584
b 849 367 581 582
b 850 580 581 582
b 851 450 580 581
b 852 291 576 577
b 853 350 572 573
b 854 570 572 573
b 855 137 571 572
b 856 570 571 572
b 857 241 570 571
b 858 347 568 569
b 859 225 564 565
b 860 563 564 565
b 861 339 563 564
b 862 306 561 562
b 863 560 561 562
b 864 71 560 561
b 865 318 554 555
b 866 268 551 552
b 867 245 549 550
b 868 548 549 550
b 869 156 548 549
b 870 341 546 547
b 871 393 541 542
b 872 539 541 542
b 873 402 540 541
b 874 539 540 541
b 875 251 539 540
b 876 357 536 537
b 877 535 536 537
b 878 9 535 536
b 879 67 533 534
b 880 424 529 530
b 881 38 527 528
b 882 378 524 525
b 883 468 519 520
b 884 114 516 517
b 885 514 516 517
b 886 107 515 516
b 887 514 515 516
b 888 95 514 515
b 889 33 512 513
b 890 55 508 509
b 891 273 505 687
b 892 320 501 502
b 893 491 501 502
b 894 27 500 501
b 895 491 500 501
b 896 83 499 500
b 897 491 499 500
b 898 369 498 499
b 899 491 498 499
b 900 45 497 498
b 901 491 497 498
b 902 13 496 497
b 903 491 496 497
b 904 423 495 496
b 905 491 495 496
b 906 42 494 495
b 907 491 494 495
b 908 165 493 494
b 909 491 493 494
b 910 432 492 493
b 911 491 492 493
b 912 272 491 492
b 913 154 474 503
b 914 41 1037 1038
b 915 351 1037 1038
b 916 109 1038 1039
b 917 351 1038 1039
b 918 351 381 1039
b 919 283 489 490
b 920 295 489 490
b 921 24 488 489
b 922 295 488 489
b 923 295 487 488
b 924 359 487 488
b 925 244 486 487
b 926 295 486 487
b 927 89 485 486
b 928 295 485 486
b 929 216 484 485
b 930 295 484 485
b 931 278 483 484
b 932 295 483 484
b 933 182 482 483
b 934 295 482 483
b 935 295 481 482
b 936 396 481 482
b 937 295 480 481
b 938 273 686 687
b 939 273 504 505
b 940 124 753 754
b 941 213 753 754
b 942 104 752 753
b 943 124 752 753
b 944 124 751 752
b 945 243 751 752
b 946 124 750 751
1 2
2 946
3 938
4 939
5 6
6 7
7 8
8 9
9 937
10 940
10 15
11 920
11 59
12 915
12 86
13 913
13 191
14 893
14 178
15 891
15 211
16 890
16 212
17 889
17 229
18 885
18 221
19 883
19 258
20 882
20 138
21 881
21 133
22 880
22 120
23 879
23 89
24 877
24 91
25 872
25 172
26 870
26 203
27 868
27 200
28 866
28 199
29 865
29 196
30 863
30 241
31 860
31 238
32 858
32 190
33 854
33 189
34 852
34 151
35 850
35 116
36 848
36 117
37 846
37 162
38 844
38 169
39 843
39 267
40 842
40 266
41 841
41 215
42 835
42 204
43 833
43 228
44 823
44 230
45 820
45 104
46 809
46 109
47 804
47 134
48 802
48 124
49 801
49 129
50 795
50 158
51 776
51 155
52 774
52 219
53 773
53 265
54 772
54 262
55 758
55 107
56 756
56 128
57 755
57 127
58 753
58 88
59 708
59 180
60 701
60 257
61 686
61 253
62 679
62 255
63 652
63 139
64 647
64 89
65 630
65 91
66 627
66 177
67 596
67 176
68 593
68 232
69 588
69 233
70 586
70 240
71 580
71 241
72 575
72 238
73 566
73 190
74 515
74 189
75 496
75 163
76 483
76 164
77 436
77 95
78 401
78 103
79 398
79 102
80 329
80 124
81 322
81 265
82 313
82 263
83 276
83 262
84 269
84 88
85 86
86 87
87 165
87 88
89 90
90 92
90 91
92 171
92 94
92 93
94 165
94 95
95 96
96 97
96 162
97 98
97 154
98 110
98 100
98 99
100 105
100 101
101 104
101 102
102 103
105 106
105 109
106 108
106 107
110 111
110 130
111 112
111 121
112 118
112 113
113 114
113 117
114 116
114 115
118 119
118 120
121 122
121 125
122 124
122 123
125 126
125 129
126 127
126 128
130 131
130 140
131 132
131 135
132 133
132 134
135 136
135 139
136 138
136 137
140 141
140 143
141 142
143 149
143 144
144 145
144 146
146 147
146 148
149 153
149 150
150 152
150 151
154 156
154 155
156 160
156 157
157 159
157 158
160 161
162 163
163 164
165 166
166 167
166 168
167 266
168 169
168 170
171 173
171 172
173 178
173 175
173 174
175 176
175 177
178 179
179 191
179 180
180 181
181 188
181 182
182 187
182 183
183 235
183 184
184 231
184 185
185 234
185 186
186 242
186 192
188 189
188 190
192 193
192 216
193 194
193 205
194 202
194 195
195 196
195 197
197 201
197 198
198 199
198 200
202 203
202 204
205 213
205 206
206 207
206 208
208 212
208 209
209 210
209 211
213 215
213 214
216 220
216 217
217 219
217 218
220 222
220 221
222 226
222 223
223 225
223 224
226 227
226 230
227 228
227 229
231 232
231 233
235 236
235 237
237 238
237 239
239 241
239 240
242 259
242 243
243 252
243 244
244 249
244 245
245 247
245 246
247 248
249 250
249 251
252 256
252 253
253 254
254 255
256 258
256 257
259 265
259 260
260 264
260 261
261 262
261 263
266 267
268 269
269 271
270 271
271 273
272 273
273 274
275 276
276 278
277 278
278 280
279 280
280 282
281 282
282 284
283 284
284 286
285 286
286 288
287 288
288 290
289 290
290 292
291 292
292 294
293 294
294 296
295 296
296 298
297 298
298 300
299 300
300 302
301 302
302 304
303 304
304 306
305 306
306 308
307 308
308 310
309 310
310 311
312 313
313 315
314 315
315 317
316 317
317 319
318 319
319 320
321 322
322 324
323 324
324 326
325 326
326 327
328 329
329 331
330 331
331 333
332 333
333 335
334 335
335 337
336 337
337 339
338 339
339 341
340 341
341 343
342 343
343 345
344 345
345 347
346 347
347 349
348 349
349 351
350 351
351 353
352 353
353 355
354 355
355 357
356 357
357 359
358 359
359 361
360 361
361 363
362 363
363 365
364 365
365 367
366 367
367 369
368 369
369 371
370 371
371 373
372 373
373 375
374 375
375 377
376 377
377 379
378 379
379 381
380 381
381 383
382 383
383 385
384 385
385 387
386 387
387 389
388 389
389 391
390 391
391 393
392 393
393 395
394 395
395 396
397 398
398 399
400 401
401 403
402 403
403 405
404 405
405 407
406 407
407 409
408 409
409 411
410 411
411 413
412 413
413 415
414 415
415 417
416 417
417 419
418 419
419 421
420 421
421 423
422 423
423 425
424 425
425 427
426 427
427 429
428 429
429 431
430 431
431 433
432 433
433 434
435 436
436 438
437 438
438 440
439 440
440 442
441 442
442 444
443 444
444 446
445 446
446 448
447 448
448 450
449 450
450 452
451 452
452 454
453 454
454 456
455 456
456 458
457 458
458 460
459 460
460 462
461 462
462 464
463 464
464 466
465 466
466 468
467 468
468 470
469 470
470 472
471 472
472 474
473 474
474 476
475 476
476 478
477 478
478 480
479 480
480 481
482 483
483 485
484 485
485 487
486 487
487 489
488 489
489 491
490 491
491 493
492 493
493 494
495 496
496 498
497 498
498 500
499 500
500 502
501 502
502 504
503 504
504 506
505 506
506 508
507 508
508 510
509 510
510 512
511 512
512 513
514 515
515 517
516 517
517 519
518 519
519 521
520 521
521 523
522 523
523 525
524 525
525 527
526 527
527 529
528 529
529 531
530 531
531 533
532 533
533 535
534 535
535 537
536 537
537 539
538 539
539 541
540 541
541 543
542 543
543 545
544 545
545 547
546 547
547 549
548 549
549 551
550 551
551 553
552 553
553 555
554 555
555 557
556 557
557 559
558 559
559 561
560 561
561 563
562 563
563 564
565 566
566 568
567 568
568 570
569 570
570 572
571 572
572 573
574 575
575 577
576 577
577 578
579 580
580 582
581 582
582 584
583 584
584 585
587 588
588 590
589 590
590 591
592 593
593 594
595 596
596 598
597 598
598 600
599 600
600 602
601 602
602 604
603 604
604 606
605 606
606 608
607 608
608 610
609 610
610 612
611 612
612 614
613 614
614 616
615 616
616 618
617 618
618 620
619 620
620 622
621 622
622 624
623 624
624 625
626 627
627 628
629 630
630 632
631 632
632 634
633 634
634 636
635 636
636 638
637 638
638 640
639 640
640 642
641 642
642 644
643 644
644 645
646 647
647 649
648 649
649 650
651 652
652 654
653 654
654 656
655 656
656 658
657 658
658 660
659 660
660 662
661 662
662 664
663 664
664 666
665 666
666 668
667 668
668 670
669 670
670 672
671 672
672 674
673 674
674 676
675 676
676 677
678 679
679 681
680 681
681 683
682 683
683 684
685 686
686 688
687 688
688 690
689 690
690 692
691 692
692 694
693 694
694 696
695 696
696 698
697 698
698 699
700 701
701 703
702 703
703 705
704 705
705 706
707 708
708 710
709 710
710 712
711 712
712 714
713 714
714 716
715 716
716 718
717 718
718 720
719 720
720 722
721 722
722 724
723 724
724 726
725 726
726 728
727 728
728 730
729 730
730 732
731 732
732 734
733 734
734 736
735 736
736 738
737 738
738 740
739 740
740 742
741 742
742 744
743 744
744 746
745 746
746 748
747 748
748 750
749 750
750 751
752 753
753 754
757 758
758 760
759 760
760 762
761 762
762 764
763 764
764 766
765 766
766 768
767 768
768 770
769 770
770 771
775 776
776 778
777 778
778 780
779 780
780 782
781 782
782 784
783 784
784 786
785 786
786 788
787 788
788 790
789 790
790 792
791 792
792 793
794 795
795 797
796 797
797 799
798 799
799 800
803 804
804 806
805 806
806 807
808 809
809 811
810 811
811 813
812 813
813 815
814 815
815 817
816 817
817 818
819 820
820 821
822 823
823 825
824 825
825 827
826 827
827 829
828 829
829 831
830 831
831 832
834 835
835 837
836 837
837 839
838 839
839 840
845 846
846 847
849 850
850 851
853 854
854 856
855 856
856 857
859 860
860 861
862 863
863 864
867 868
868 869
871 872
872 874
873 874
874 875
876 877
877 878
884 885
885 887
886 887
887 888
891 939
891 938
892 893
893 895
894 895
895 897
896 897
897 899
898 899
899 901
900 901
901 903
902 903
903 905
904 905
905 907
906 907
907 909
908 909
909 911
910 911
911 912
914 915
915 917
916 917
917 918
919 920
920 922
921 922
922 923
923 926
923 924
925 926
926 928
927 928
928 930
929 930
930 932
931 932
932 934
933 934
934 935
935 937
935 936
940 943
940 941
942 943
943 944
944 946
944 945
